benchmarks_CP/INST_36x36/55/inst36x36_55_95.dzn
S=6;
start=[|
-1,	21,	20,	10,	-1,	3,	31,	33,	23,	7,	-1,	36,	-1,	25,	18,	1,	-1,	2,	34,	11,	29,	30,	-1,	-1,	-1,	8,	-1,	4,	9,	-1,	-1,	12,	32,	-1,	-1,	19|
1,	-1,	25,	-1,	23,	-1,	32,	2,	18,	21,	-1,	-1,	-1,	27,	-1,	-1,	-1,	12,	-1,	5,	10,	-1,	3,	-1,	-1,	-1,	-1,	31,	33,	-1,	-1,	-1,	-1,	22,	29,	-1|
-1,	34,	12,	-1,	-1,	-1,	8,	17,	-1,	26,	-1,	-1,	-1,	14,	-1,	-1,	-1,	6,	-1,	35,	20,	-1,	-1,	-1,	-1,	-1,	-1,	-1,	10,	-1,	-1,	24,	2,	-1,	21,	-1|
-1,	-1,	-1,	9,	26,	-1,	-1,	20,	3,	-1,	25,	-1,	-1,	36,	-1,	-1,	15,	-1,	-1,	7,	1,	12,	6,	24,	32,	27,	23,	-1,	30,	17,	-1,	33,	10,	-1,	14,	5|
-1,	2,	7,	35,	19,	-1,	24,	11,	10,	14,	-1,	-1,	17,	-1,	34,	9,	13,	-1,	-1,	28,	21,	22,	32,	18,	-1,	5,	-1,	12,	-1,	20,	15,	23,	-1,	27,	-1,	-1|
27,	-1,	-1,	-1,	33,	32,	-1,	1,	-1,	30,	-1,	13,	-1,	20,	-1,	28,	-1,	24,	8,	26,	19,	23,	9,	4,	14,	-1,	11,	-1,	-1,	2,	-1,	-1,	7,	34,	18,	-1|
30,	-1,	-1,	23,	32,	34,	11,	-1,	33,	-1,	3,	-1,	15,	-1,	25,	-1,	8,	-1,	21,	16,	7,	-1,	-1,	-1,	-1,	22,	36,	17,	14,	-1,	-1,	-1,	-1,	-1,	-1,	-1|
21,	-1,	-1,	-1,	-1,	16,	-1,	-1,	-1,	1,	-1,	-1,	-1,	-1,	-1,	33,	-1,	31,	-1,	-1,	27,	18,	15,	34,	10,	24,	-1,	20,	32,	-1,	26,	5,	30,	25,	-1,	14|
-1,	22,	-1,	-1,	27,	-1,	-1,	-1,	32,	12,	29,	-1,	30,	5,	26,	-1,	28,	36,	35,	-1,	2,	33,	-1,	23,	-1,	-1,	-1,	18,	-1,	25,	7,	31,	-1,	-1,	8,	4|
36,	8,	-1,	13,	-1,	-1,	28,	26,	-1,	4,	31,	-1,	23,	9,	-1,	12,	24,	34,	3,	-1,	-1,	-1,	-1,	25,	-1,	-1,	29,	-1,	7,	27,	2,	-1,	17,	16,	22,	-1|
12,	-1,	14,	5,	25,	-1,	18,	30,	-1,	-1,	24,	22,	35,	-1,	16,	-1,	19,	21,	-1,	9,	28,	-1,	10,	1,	-1,	-1,	3,	-1,	-1,	-1,	-1,	32,	-1,	29,	36,	-1|
-1,	-1,	-1,	-1,	-1,	11,	16,	10,	-1,	2,	34,	-1,	-1,	-1,	-1,	17,	-1,	14,	19,	4,	-1,	5,	22,	29,	-1,	1,	28,	-1,	8,	15,	-1,	-1,	-1,	23,	-1,	-1|
22,	12,	-1,	-1,	29,	-1,	2,	-1,	6,	-1,	18,	34,	4,	16,	17,	35,	26,	32,	24,	23,	33,	-1,	31,	10,	-1,	9,	21,	8,	19,	-1,	-1,	36,	25,	-1,	-1,	-1|
4,	-1,	-1,	7,	-1,	-1,	29,	24,	28,	31,	33,	-1,	-1,	1,	-1,	-1,	21,	-1,	36,	-1,	-1,	-1,	-1,	-1,	25,	-1,	32,	22,	-1,	30,	6,	-1,	5,	-1,	-1,	34|
-1,	5,	-1,	30,	20,	21,	-1,	23,	-1,	-1,	36,	16,	2,	3,	-1,	25,	-1,	-1,	14,	1,	15,	4,	11,	26,	-1,	33,	17,	34,	-1,	-1,	32,	29,	22,	24,	10,	-1|
-1,	26,	31,	28,	-1,	27,	30,	25,	14,	32,	-1,	20,	36,	7,	-1,	5,	-1,	11,	9,	-1,	-1,	6,	12,	21,	4,	3,	35,	10,	2,	-1,	8,	19,	18,	-1,	-1,	-1|
-1,	14,	15,	32,	6,	-1,	4,	3,	11,	9,	19,	27,	-1,	-1,	-1,	-1,	30,	33,	29,	-1,	25,	-1,	-1,	-1,	-1,	-1,	-1,	-1,	-1,	24,	-1,	-1,	-1,	-1,	-1,	-1|
-1,	33,	-1,	18,	-1,	-1,	26,	8,	21,	-1,	-1,	1,	-1,	19,	-1,	20,	-1,	-1,	30,	3,	-1,	35,	-1,	32,	23,	-1,	-1,	-1,	-1,	12,	-1,	-1,	-1,	31,	2,	-1|
9,	29,	13,	25,	2,	-1,	33,	-1,	-1,	-1,	23,	35,	-1,	8,	-1,	3,	-1,	19,	10,	12,	-1,	-1,	24,	30,	-1,	-1,	5,	-1,	-1,	22,	-1,	-1,	-1,	-1,	26,	-1|
-1,	28,	24,	26,	-1,	20,	27,	22,	-1,	-1,	-1,	4,	-1,	15,	32,	2,	-1,	23,	-1,	-1,	17,	-1,	5,	-1,	16,	30,	34,	19,	-1,	21,	9,	10,	-1,	12,	3,	-1|
-1,	16,	27,	-1,	-1,	35,	20,	28,	2,	-1,	32,	8,	-1,	13,	30,	-1,	-1,	-1,	23,	29,	-1,	21,	-1,	33,	36,	-1,	9,	11,	-1,	-1,	1,	-1,	6,	17,	4,	24|
-1,	18,	-1,	-1,	-1,	22,	-1,	34,	7,	36,	12,	24,	5,	35,	-1,	-1,	16,	-1,	-1,	14,	8,	-1,	4,	-1,	6,	-1,	-1,	26,	-1,	1,	30,	-1,	28,	2,	-1,	-1|
-1,	31,	30,	34,	21,	-1,	25,	-1,	-1,	18,	11,	-1,	6,	-1,	1,	-1,	17,	7,	22,	27,	32,	-1,	28,	35,	24,	-1,	8,	33,	13,	3,	36,	-1,	-1,	20,	-1,	29|
-1,	-1,	8,	12,	4,	-1,	17,	-1,	30,	3,	-1,	10,	24,	-1,	-1,	-1,	25,	-1,	-1,	13,	-1,	-1,	-1,	-1,	28,	2,	14,	29,	20,	-1,	-1,	34,	15,	-1,	-1,	23|
20,	-1,	34,	-1,	-1,	12,	-1,	4,	5,	-1,	21,	-1,	11,	10,	-1,	32,	-1,	13,	6,	30,	-1,	-1,	27,	-1,	-1,	-1,	18,	-1,	17,	33,	-1,	-1,	31,	7,	15,	-1|
-1,	9,	-1,	24,	-1,	4,	3,	18,	17,	-1,	14,	32,	7,	23,	36,	8,	-1,	-1,	12,	25,	35,	29,	33,	-1,	22,	-1,	-1,	21,	11,	5,	10,	-1,	34,	-1,	27,	-1|
32,	15,	-1,	-1,	-1,	-1,	-1,	-1,	-1,	-1,	-1,	-1,	-1,	22,	-1,	-1,	-1,	-1,	18,	19,	11,	-1,	-1,	13,	34,	35,	1,	-1,	3,	-1,	-1,	-1,	-1,	36,	-1,	-1|
-1,	17,	-1,	27,	-1,	26,	-1,	-1,	-1,	24,	-1,	33,	-1,	30,	-1,	-1,	1,	18,	28,	32,	-1,	-1,	-1,	7,	8,	-1,	4,	-1,	-1,	19,	25,	-1,	-1,	-1,	20,	22|
-1,	-1,	19,	33,	-1,	6,	23,	-1,	-1,	28,	8,	26,	25,	-1,	14,	-1,	-1,	-1,	16,	34,	9,	1,	-1,	22,	30,	20,	13,	7,	24,	10,	3,	-1,	11,	-1,	32,	18|
-1,	3,	21,	-1,	7,	-1,	-1,	36,	-1,	11,	30,	31,	19,	-1,	-1,	24,	-1,	20,	-1,	10,	5,	17,	8,	-1,	12,	6,	-1,	32,	-1,	26,	-1,	16,	-1,	1,	9,	-1|
15,	1,	-1,	3,	24,	30,	9,	-1,	19,	-1,	13,	21,	16,	-1,	28,	-1,	-1,	-1,	17,	20,	-1,	-1,	36,	6,	-1,	25,	7,	2,	-1,	8,	12,	22,	27,	4,	31,	26|
-1,	-1,	26,	6,	-1,	-1,	-1,	31,	1,	-1,	-1,	-1,	20,	24,	-1,	19,	4,	-1,	32,	-1,	18,	-1,	29,	-1,	-1,	-1,	-1,	28,	22,	-1,	23,	30,	-1,	10,	16,	-1|
-1,	11,	-1,	8,	-1,	9,	34,	-1,	29,	33,	-1,	3,	-1,	-1,	13,	30,	-1,	25,	-1,	-1,	-1,	16,	23,	2,	-1,	19,	-1,	14,	18,	36,	-1,	15,	20,	32,	-1,	17|
34,	20,	29,	21,	-1,	14,	10,	27,	-1,	-1,	-1,	17,	-1,	-1,	33,	-1,	36,	-1,	1,	-1,	26,	-1,	-1,	-1,	11,	-1,	30,	24,	-1,	-1,	-1,	-1,	19,	5,	7,	3|
28,	23,	-1,	-1,	-1,	25,	36,	-1,	-1,	6,	20,	30,	31,	21,	-1,	-1,	10,	-1,	27,	-1,	3,	-1,	-1,	9,	1,	4,	-1,	13,	-1,	-1,	-1,	11,	-1,	-1,	34,	-1|
10,	35,	32,	36,	-1,	-1,	-1,	-1,	25,	-1,	26,	-1,	-1,	17,	8,	14,	27,	-1,	-1,	-1,	4,	-1,	-1,	28,	20,	21,	-1,	3,	6,	34,	-1,	-1,	9,	13,	24,	2|];
